language ESSENCE' 1.0

letting n_classes be 22
letting n_options be 5
letting n_cars be 100
letting quantity_Function1D be [20, 7, 3, 9, 3, 1, 7, 3, 3, 1, 2, 5, 9, 3, 1, 6, 4, 7, 1, 2, 2, 1; int(1..22)]
letting usage_RelationAsSet_Explicit_1 be
        [1, 2, 2, 2, 3, 3, 4, 5, 6, 6, 6, 6, 7, 8, 8, 9, 9, 9, 9, 10, 10, 10, 11, 11, 11, 12, 12, 12, 13, 13, 14, 14,
         15, 15, 15, 15, 16, 16, 16, 17, 17, 18, 18, 19, 19, 19, 19, 20, 20, 21, 21, 21, 22, 22;
             int(1..54)]
letting usage_RelationAsSet_Explicit_2 be
        [2, 1, 2, 3, 3, 4, 4, 5, 2, 3, 4, 5, 1, 2, 5, 1, 2, 3, 4, 1, 4, 5, 1, 2, 5, 2, 3, 4, 1, 2, 2, 4, 1, 3, 4, 5, 1,
         2, 4, 1, 4, 2, 3, 1, 2, 4, 5, 1, 5, 1, 3, 4, 4, 5;
             int(1..54)]
letting blksize_Function1D be [2, 3, 3, 5, 5; int(1..5)]
letting maxcars_Function1D be [1, 2, 1, 2, 1; int(1..5)]
letting fin1 be 22
letting fin2 be 20
letting fin3 be 5
letting fin4 be 2
letting fin5 be 5
letting fin6 be 5
letting fin7 be 54
